\ENCODING=ISO-8859-1
\Problem name: IloCplex

Minimize
 obj: C(1,0) + C(1,1) + C(1,2) + C(1,3) + C(1,4)
Subject To
 c1:  x(0,0) + x(0,1) + x(0,2) + x(0,3) + x(0,4)  = 1
 c2:  x(1,0) + x(1,1) + x(1,2) + x(1,3) + x(1,4)  = 1
 c3:  x(2,0) + x(2,1) + x(2,2) + x(2,3) + x(2,4)  = 1
 c4:  x(3,0) + x(3,1) + x(3,2) + x(3,3) + x(3,4)  = 1
 c5:  x(4,0) + x(4,1) + x(4,2) + x(4,3) + x(4,4)  = 1
 c6:  x(0,0) + x(1,0) + x(2,0) + x(3,0) + x(4,0)  = 1
 c7:  x(0,1) + x(1,1) + x(2,1) + x(3,1) + x(4,1)  = 1
 c8:  x(0,2) + x(1,2) + x(2,2) + x(3,2) + x(4,2)  = 1
 c9:  x(0,3) + x(1,3) + x(2,3) + x(3,3) + x(4,3)  = 1
 c10: x(0,4) + x(1,4) + x(2,4) + x(3,4) + x(4,4)  = 1
 c11: - 10 x(0,0) - 15 x(1,0) - 30 x(2,0) - 25 x(3,0) - 8 x(4,0) + C(0,0) >= 0
 c12: C(1,0) - 20 x(0,0) - 21 x(1,0) - 5 x(2,0) - 10 x(3,0) - 4 x(4,0) - C(0,0)
      >= 0
 c13: - 10 x(0,1) - 15 x(1,1) - 30 x(2,1) - 25 x(3,1) - 8 x(4,1) - C(0,0)
      + C(0,1) >= 0
 c14: - C(1,0) + C(1,1) - 20 x(0,1) - 21 x(1,1) - 5 x(2,1) - 10 x(3,1)
      - 4 x(4,1) >= 0
 c15: C(1,1) - 20 x(0,1) - 21 x(1,1) - 5 x(2,1) - 10 x(3,1) - 4 x(4,1) - C(0,1)
      >= 0
 c16: - 10 x(0,2) - 15 x(1,2) - 30 x(2,2) - 25 x(3,2) - 8 x(4,2) - C(0,1)
      + C(0,2) >= 0
 c17: - C(1,1) + C(1,2) - 20 x(0,2) - 21 x(1,2) - 5 x(2,2) - 10 x(3,2)
      - 4 x(4,2) >= 0
 c18: C(1,2) - 20 x(0,2) - 21 x(1,2) - 5 x(2,2) - 10 x(3,2) - 4 x(4,2) - C(0,2)
      >= 0
 c19: - 10 x(0,3) - 15 x(1,3) - 30 x(2,3) - 25 x(3,3) - 8 x(4,3) - C(0,2)
      + C(0,3) >= 0
 c20: - C(1,2) + C(1,3) - 20 x(0,3) - 21 x(1,3) - 5 x(2,3) - 10 x(3,3)
      - 4 x(4,3) >= 0
 c21: C(1,3) - 20 x(0,3) - 21 x(1,3) - 5 x(2,3) - 10 x(3,3) - 4 x(4,3) - C(0,3)
      >= 0
 c22: - 10 x(0,4) - 15 x(1,4) - 30 x(2,4) - 25 x(3,4) - 8 x(4,4) - C(0,3)
      + C(0,4) >= 0
 c23: - C(1,3) + C(1,4) - 20 x(0,4) - 21 x(1,4) - 5 x(2,4) - 10 x(3,4)
      - 4 x(4,4) >= 0
 c24: C(1,4) - 20 x(0,4) - 21 x(1,4) - 5 x(2,4) - 10 x(3,4) - 4 x(4,4) - C(0,4)
      >= 0
Bounds
 0 <= x(0,0) <= 1
 0 <= x(0,1) <= 1
 0 <= x(0,2) <= 1
 0 <= x(0,3) <= 1
 0 <= x(0,4) <= 1
 0 <= x(1,0) <= 1
 0 <= x(1,1) <= 1
 0 <= x(1,2) <= 1
 0 <= x(1,3) <= 1
 0 <= x(1,4) <= 1
 0 <= x(2,0) <= 1
 0 <= x(2,1) <= 1
 0 <= x(2,2) <= 1
 0 <= x(2,3) <= 1
 0 <= x(2,4) <= 1
 0 <= x(3,0) <= 1
 0 <= x(3,1) <= 1
 0 <= x(3,2) <= 1
 0 <= x(3,3) <= 1
 0 <= x(3,4) <= 1
 0 <= x(4,0) <= 1
 0 <= x(4,1) <= 1
 0 <= x(4,2) <= 1
 0 <= x(4,3) <= 1
 0 <= x(4,4) <= 1
Binaries
 x(0,0)  x(0,1)  x(0,2)  x(0,3)  x(0,4)  x(1,0)  x(1,1)  x(1,2)  x(1,3) 
 x(1,4)  x(2,0)  x(2,1)  x(2,2)  x(2,3)  x(2,4)  x(3,0)  x(3,1)  x(3,2) 
 x(3,3)  x(3,4)  x(4,0)  x(4,1)  x(4,2)  x(4,3)  x(4,4) 
End
